c FILE /home/rafael/Documents/HappySet/MIHS/inputs/happygen/output/graph_d_regular_k4_p0.1_v50_20241127_082610.txt
c SOURCE This is a d-regular graph formed for the happy graph colouring problem.
c DESCRIPTION It was generated using the problem generator of Rhyd Lewis
c
c GRAPH STATS
c Seed                             = -1322186716
c Number of Nodes                  = 50
c Number of colours k              = 4
c Number of pre-assignments        = 5
c Degree of all vertices           = 6
c Density                          = 0.122449
c 
c The degrees of nodes 1 to 50, respectively, are as follows 
c [6, 6, 6, 6, 6, 6, 6, 6, 6, 6, 6, 6, 6, 6, 6, 6, 6, 6, 6, 6, 6, 6, 6, 6, 6, 6, 
c  6, 6, 6, 6, 6, 6, 6, 6, 6, 6, 6, 6, 6, 6, 6, 6, 6, 6, 6, 6, 6, 6, 6, 6] 
c  
p edge 50 150 4
e 1 8
e 1 9
e 1 19
e 1 25
e 1 39
e 1 42
e 2 17
e 2 22
e 2 28
e 2 43
e 2 44
e 2 50
e 3 4
e 3 8
e 3 15
e 3 23
e 3 48
e 3 49
e 4 5
e 4 7
e 4 24
e 4 26
e 4 39
e 5 9
e 5 18
e 5 23
e 5 29
e 5 44
e 6 10
e 6 13
e 6 19
e 6 26
e 6 37
e 6 49
e 7 10
e 7 24
e 7 27
e 7 45
e 7 46
e 8 29
e 8 41
e 8 43
e 8 44
e 9 21
e 9 27
e 9 38
e 9 48
e 10 16
e 10 34
e 10 36
e 10 50
e 11 14
e 11 16
e 11 38
e 11 40
e 11 46
e 11 47
e 12 26
e 12 28
e 12 39
e 12 40
e 12 44
e 12 50
e 13 17
e 13 22
e 13 23
e 13 38
e 13 41
e 14 21
e 14 27
e 14 35
e 14 42
e 14 47
e 15 17
e 15 28
e 15 32
e 15 41
e 15 49
e 16 21
e 16 29
e 16 32
e 16 43
e 17 30
e 17 36
e 17 37
e 18 19
e 18 20
e 18 40
e 18 44
e 18 46
e 19 29
e 19 43
e 19 45
e 20 31
e 20 36
e 20 38
e 20 47
e 20 50
e 21 26
e 21 34
e 21 47
e 22 24
e 22 25
e 22 28
e 22 41
e 23 32
e 23 42
e 23 46
e 24 26
e 24 33
e 24 40
e 25 26
e 25 38
e 25 41
e 25 47
e 27 31
e 27 35
e 27 37
e 28 38
e 28 45
e 29 31
e 29 33
e 30 31
e 30 32
e 30 34
e 30 42
e 30 45
e 31 48
e 31 49
e 32 47
e 32 48
e 33 34
e 33 37
e 33 40
e 33 45
e 34 35
e 34 49
e 35 39
e 35 40
e 35 50
e 36 37
e 36 46
e 36 49
e 37 42
e 39 44
e 39 48
e 41 43
e 42 45
e 43 48
e 46 50
n 4 1
n 18 2
n 19 2
n 37 3
n 48 4
